(set-info :smt-lib-version 2.6)
(set-info :category "crafted")
(set-logic QF_FFA)
(define-sort FF0 () (_ FiniteField 52435875175126190479447740508185965837690552500527637822603658699938581184513))
(declare-fun mul_n19_alt () FF0)
(declare-fun is_zero_n25_alt () FF0)
(declare-fun h_n9_alt () FF0)
(declare-fun mul_n12_alt () FF0)
(declare-fun mul_n11_alt () FF0)
(declare-fun f_n1_alt () FF0)
(declare-fun mul_n20_alt () FF0)
(declare-fun is_zero_n23_alt () FF0)
(declare-fun a_n0_alt () FF0)
(declare-fun return_n7_alt () FF0)
(declare-fun is_zero_inv_n26_alt () FF0)
(declare-fun j_n3_alt () FF0)
(declare-fun e_n2_alt () FF0)
(declare-fun i_n5_alt () FF0)
(declare-fun b_n8_alt () FF0)
(declare-fun is_zero_n14_alt () FF0)
(declare-fun d_n4_alt () FF0)
(declare-fun is_zero_inv_n24_alt () FF0)
(declare-fun mul_n21_alt () FF0)
(declare-fun mul_n17_alt () FF0)
(declare-fun g_n10_alt () FF0)
(declare-fun is_zero_inv_n22_alt () FF0)
(declare-fun mul_n18_alt () FF0)
(declare-fun c_n6_alt () FF0)
(declare-fun mul_n16_alt () FF0)
(declare-fun mul_n15_alt () FF0)
(declare-fun is_zero_inv_n13_alt () FF0)
(declare-fun mul_n19 () FF0)
(declare-fun is_zero_n25 () FF0)
(declare-fun h_n9 () FF0)
(declare-fun mul_n12 () FF0)
(declare-fun mul_n11 () FF0)
(declare-fun f_n1 () FF0)
(declare-fun mul_n20 () FF0)
(declare-fun is_zero_n23 () FF0)
(declare-fun a_n0 () FF0)
(declare-fun return_n7 () FF0)
(declare-fun is_zero_inv_n26 () FF0)
(declare-fun j_n3 () FF0)
(declare-fun e_n2 () FF0)
(declare-fun i_n5 () FF0)
(declare-fun b_n8 () FF0)
(declare-fun is_zero_n14 () FF0)
(declare-fun d_n4 () FF0)
(declare-fun is_zero_inv_n24 () FF0)
(declare-fun mul_n21 () FF0)
(declare-fun mul_n17 () FF0)
(declare-fun g_n10 () FF0)
(declare-fun is_zero_inv_n22 () FF0)
(declare-fun mul_n18 () FF0)
(declare-fun c_n6 () FF0)
(declare-fun mul_n16 () FF0)
(declare-fun mul_n15 () FF0)
(declare-fun is_zero_inv_n13 () FF0)
(assert 
  (let ((let0 (as ff0 FF0)))
  (let ((let1 (as ff4 FF0)))
  (let ((let2 (as ff52435875175126190479447740508185965837690552500527637822603658699938581184512 FF0)))
  (let ((let3 mul_n19_alt))
  (let ((let4 (ff.mul let3 let2)))
  (let ((let5 is_zero_n25_alt))
  (let ((let6 h_n9_alt))
  (let ((let7 (ff.mul let6 let2)))
  (let ((let8 mul_n12_alt))
  (let ((let9 mul_n11_alt))
  (let ((let10 f_n1_alt))
  (let ((let11 (ff.mul let10 let2)))
  (let ((let12 mul_n20_alt))
  (let ((let13 (ff.mul let12 let2)))
  (let ((let14 is_zero_n23_alt))
  (let ((let15 a_n0_alt))
  (let ((let16 (ff.mul let15 let2)))
  (let ((let17 (ff.add let16 let14 let13 let11 let9 let8 let7 let5 let4 let1)))
  (let ((let18 (as ff1 FF0)))
  (let ((let19 return_n7_alt))
  (let ((let20 (ff.mul let19 let2)))
  (let ((let21 (ff.add let20 let18)))
  (let ((let22 (ff.mul let21 let17)))
  (let ((let23 (= let22 let0)))
  (let ((let24 is_zero_inv_n26_alt))
  (let ((let25 (ff.mul let24 let17)))
  (let ((let26 (= let25 let19)))
  (let ((let27 (as ff8 FF0)))
  (let ((let28 (as ff52435875175126190479447740508185965837690552500527637822603658699938581184511 FF0)))
  (let ((let29 j_n3_alt))
  (let ((let30 (ff.mul let29 let28)))
  (let ((let31 e_n2_alt))
  (let ((let32 (ff.mul let31 let2)))
  (let ((let33 i_n5_alt))
  (let ((let34 (ff.mul let33 let2)))
  (let ((let35 b_n8_alt))
  (let ((let36 (ff.mul let35 let2)))
  (let ((let37 is_zero_n14_alt))
  (let ((let38 d_n4_alt))
  (let ((let39 (ff.mul let38 let2)))
  (let ((let40 (ff.add let39 let11 let37 let36 let34 let32 let7 let30 let27)))
  (let ((let41 (ff.mul let5 let40)))
  (let ((let42 (= let41 let0)))
  (let ((let43 (ff.mul let5 let2)))
  (let ((let44 (ff.add let43 let18)))
  (let ((let45 is_zero_inv_n24_alt))
  (let ((let46 (ff.mul let45 let40)))
  (let ((let47 (= let46 let44)))
  (let ((let48 (as ff2 FF0)))
  (let ((let49 (ff.mul let6 let48)))
  (let ((let50 mul_n21_alt))
  (let ((let51 (ff.mul let50 let28)))
  (let ((let52 (ff.mul let37 let28)))
  (let ((let53 mul_n17_alt))
  (let ((let54 (ff.mul let53 let2)))
  (let ((let55 (ff.mul let10 let28)))
  (let ((let56 g_n10_alt))
  (let ((let57 (ff.mul let56 let2)))
  (let ((let58 (ff.add let16 let57 let55 let54 let52 let51 let32 let49 let27)))
  (let ((let59 (ff.mul let14 let58)))
  (let ((let60 (= let59 let0)))
  (let ((let61 (ff.mul let14 let2)))
  (let ((let62 (ff.add let61 let18)))
  (let ((let63 is_zero_inv_n22_alt))
  (let ((let64 (ff.mul let63 let58)))
  (let ((let65 (= let64 let62)))
  (let ((let66 (ff.mul let37 let2)))
  (let ((let67 (ff.add let66 let18)))
  (let ((let68 (ff.mul let49 let67)))
  (let ((let69 (= let68 let50)))
  (let ((let70 (ff.mul let33 let35)))
  (let ((let71 (= let70 let12)))
  (let ((let72 (ff.add let54 let18)))
  (let ((let73 mul_n18_alt))
  (let ((let74 (ff.add let53 let73)))
  (let ((let75 (ff.mul let74 let72)))
  (let ((let76 (= let75 let3)))
  (let ((let77 (ff.add let11 let54 let18)))
  (let ((let78 c_n6_alt))
  (let ((let79 (ff.mul let78 let77)))
  (let ((let80 (= let79 let73)))
  (let ((let81 mul_n16_alt))
  (let ((let82 (ff.mul let81 let56)))
  (let ((let83 (= let82 let53)))
  (let ((let84 mul_n15_alt))
  (let ((let85 (ff.mul let84 let2)))
  (let ((let86 (ff.add let85 let18)))
  (let ((let87 (ff.mul let86 let86)))
  (let ((let88 (= let87 let81)))
  (let ((let89 (ff.add let39 let18)))
  (let ((let90 (ff.mul let37 let89)))
  (let ((let91 (= let90 let84)))
  (let ((let92 (as ff3 FF0)))
  (let ((let93 (ff.mul let78 let92)))
  (let ((let94 (ff.mul let31 let48)))
  (let ((let95 (ff.mul let33 let48)))
  (let ((let96 (ff.mul let35 let48)))
  (let ((let97 (ff.mul let38 let48)))
  (let ((let98 (ff.mul let56 let48)))
  (let ((let99 (ff.mul let15 let92)))
  (let ((let100 (ff.add let99 let98 let97 let10 let96 let95 let94 let6 let93 let29)))
  (let ((let101 (ff.mul let37 let100)))
  (let ((let102 (= let101 let0)))
  (let ((let103 is_zero_inv_n13_alt))
  (let ((let104 (ff.mul let103 let100)))
  (let ((let105 (= let104 let67)))
  (let ((let106 (ff.mul let49 let10)))
  (let ((let107 (= let106 let8)))
  (let ((let108 (ff.mul let38 let29)))
  (let ((let109 (= let108 let9)))
  (let ((let110 (and let109 let107 let105 let102 let91 let88 let83 let80 let76 let71 let69 let65 let60 let47 let42 let26 let23)))
  (let ((let111 mul_n19))
  (let ((let112 (ff.mul let111 let2)))
  (let ((let113 is_zero_n25))
  (let ((let114 h_n9))
  (let ((let115 (ff.mul let114 let2)))
  (let ((let116 mul_n12))
  (let ((let117 mul_n11))
  (let ((let118 f_n1))
  (let ((let119 (ff.mul let118 let2)))
  (let ((let120 mul_n20))
  (let ((let121 (ff.mul let120 let2)))
  (let ((let122 is_zero_n23))
  (let ((let123 a_n0))
  (let ((let124 (ff.mul let123 let2)))
  (let ((let125 (ff.add let124 let122 let121 let119 let117 let116 let115 let113 let112 let1)))
  (let ((let126 return_n7))
  (let ((let127 (ff.mul let126 let2)))
  (let ((let128 (ff.add let127 let18)))
  (let ((let129 (ff.mul let128 let125)))
  (let ((let130 (= let129 let0)))
  (let ((let131 is_zero_inv_n26))
  (let ((let132 (ff.mul let131 let125)))
  (let ((let133 (= let132 let126)))
  (let ((let134 j_n3))
  (let ((let135 (ff.mul let134 let28)))
  (let ((let136 e_n2))
  (let ((let137 (ff.mul let136 let2)))
  (let ((let138 i_n5))
  (let ((let139 (ff.mul let138 let2)))
  (let ((let140 b_n8))
  (let ((let141 (ff.mul let140 let2)))
  (let ((let142 is_zero_n14))
  (let ((let143 d_n4))
  (let ((let144 (ff.mul let143 let2)))
  (let ((let145 (ff.add let144 let119 let142 let141 let139 let137 let115 let135 let27)))
  (let ((let146 (ff.mul let113 let145)))
  (let ((let147 (= let146 let0)))
  (let ((let148 (ff.mul let113 let2)))
  (let ((let149 (ff.add let148 let18)))
  (let ((let150 is_zero_inv_n24))
  (let ((let151 (ff.mul let150 let145)))
  (let ((let152 (= let151 let149)))
  (let ((let153 (ff.mul let114 let48)))
  (let ((let154 mul_n21))
  (let ((let155 (ff.mul let154 let28)))
  (let ((let156 (ff.mul let142 let28)))
  (let ((let157 mul_n17))
  (let ((let158 (ff.mul let157 let2)))
  (let ((let159 (ff.mul let118 let28)))
  (let ((let160 g_n10))
  (let ((let161 (ff.mul let160 let2)))
  (let ((let162 (ff.add let124 let161 let159 let158 let156 let155 let137 let153 let27)))
  (let ((let163 (ff.mul let122 let162)))
  (let ((let164 (= let163 let0)))
  (let ((let165 (ff.mul let122 let2)))
  (let ((let166 (ff.add let165 let18)))
  (let ((let167 is_zero_inv_n22))
  (let ((let168 (ff.mul let167 let162)))
  (let ((let169 (= let168 let166)))
  (let ((let170 (ff.mul let142 let2)))
  (let ((let171 (ff.add let170 let18)))
  (let ((let172 (ff.mul let153 let171)))
  (let ((let173 (= let172 let154)))
  (let ((let174 (ff.mul let138 let140)))
  (let ((let175 (= let174 let120)))
  (let ((let176 (ff.add let158 let18)))
  (let ((let177 mul_n18))
  (let ((let178 (ff.add let157 let177)))
  (let ((let179 (ff.mul let178 let176)))
  (let ((let180 (= let179 let111)))
  (let ((let181 (ff.add let119 let158 let18)))
  (let ((let182 c_n6))
  (let ((let183 (ff.mul let182 let181)))
  (let ((let184 (= let183 let177)))
  (let ((let185 mul_n16))
  (let ((let186 (ff.mul let185 let160)))
  (let ((let187 (= let186 let157)))
  (let ((let188 mul_n15))
  (let ((let189 (ff.mul let188 let2)))
  (let ((let190 (ff.add let189 let18)))
  (let ((let191 (ff.mul let190 let190)))
  (let ((let192 (= let191 let185)))
  (let ((let193 (ff.add let144 let18)))
  (let ((let194 (ff.mul let142 let193)))
  (let ((let195 (= let194 let188)))
  (let ((let196 (ff.mul let182 let92)))
  (let ((let197 (ff.mul let136 let48)))
  (let ((let198 (ff.mul let138 let48)))
  (let ((let199 (ff.mul let140 let48)))
  (let ((let200 (ff.mul let143 let48)))
  (let ((let201 (ff.mul let160 let48)))
  (let ((let202 (ff.mul let123 let92)))
  (let ((let203 (ff.add let202 let201 let200 let118 let199 let198 let197 let114 let196 let134)))
  (let ((let204 (ff.mul let142 let203)))
  (let ((let205 (= let204 let0)))
  (let ((let206 is_zero_inv_n13))
  (let ((let207 (ff.mul let206 let203)))
  (let ((let208 (= let207 let171)))
  (let ((let209 (ff.mul let153 let118)))
  (let ((let210 (= let209 let116)))
  (let ((let211 (ff.mul let143 let134)))
  (let ((let212 (= let211 let117)))
  (let ((let213 (and let212 let210 let208 let205 let195 let192 let187 let184 let180 let175 let173 let169 let164 let152 let147 let133 let130)))
  (let ((let214 (= let126 let19)))
  (let ((let215 (not let214)))
  (let ((let216 (= let138 let33)))
  (let ((let217 (= let134 let29)))
  (let ((let218 (= let118 let10)))
  (let ((let219 (= let140 let35)))
  (let ((let220 (= let143 let38)))
  (let ((let221 (= let123 let15)))
  (let ((let222 (= let182 let78)))
  (let ((let223 (= let114 let6)))
  (let ((let224 (= let136 let31)))
  (let ((let225 (= let160 let56)))
  (let ((let226 (and let225 let224 let223 let222 let221 let220 let219 let218 let217 let216)))
  (let ((let227 (and let226 let215 let213 let110)))
  let227
))))))))))))))))))))))))))))))))))))))))))))))))))))))))))))))))))))))))))))))))))))))))))))))))))))))))))))))))))))))))))))))))))))))))))))))))))))))))))))))))))))))))))))))))))))))))))))))))))))))))))))))))))))))))))))))))))))
)
(check-sat)
